data;

param N := 6;
param M := 1000;

param DISTANCE :   1 2 3 4 5 6 :=
                1 15  1  1  10 12 12
                2  1 15  1  8  10 11
                3  1  1 15 8  11 10
                4 10  8  8 15  1 1
                5 12 10 11 1  15 1
                6 12 11 10 1  1 15;

end;
